p cnf 283 692
c weights 1.0 1.0 2.718281828459045 0.36787944117144233 2.718281828459045 0.36787944117144233 2.718281828459045 0.36787944117144233 1.0 1.0 2.718281828459045 0.36787944117144233 2.718281828459045 0.36787944117144233 2.718281828459045 0.36787944117144233 1.0 1.0 2.718281828459045 0.36787944117144233 2.718281828459045 0.36787944117144233 2.718281828459045 0.36787944117144233 1.0 1.0 2.718281828459045 0.36787944117144233 2.718281828459045 0.36787944117144233 2.718281828459045 0.36787944117144233 2.718281828459045 0.36787944117144233 2.718281828459045 0.36787944117144233 1.0 1.0 2.718281828459045 0.36787944117144233 2.718281828459045 0.36787944117144233 2.718281828459045 0.36787944117144233 2.718281828459045 0.36787944117144233 2.718281828459045 0.36787944117144233 2.718281828459045 0.36787944117144233 1.0 1.0 2.718281828459045 0.36787944117144233 2.718281828459045 0.36787944117144233 2.718281828459045 0.36787944117144233 2.718281828459045 0.36787944117144233 1.0 1.0 2.718281828459045 0.36787944117144233 2.718281828459045 0.36787944117144233 1.0 1.0 2.718281828459045 0.36787944117144233 2.718281828459045 0.36787944117144233 1.0 1.0 2.718281828459045 0.36787944117144233 2.718281828459045 0.36787944117144233 2.718281828459045 0.36787944117144233 2.718281828459045 0.36787944117144233 1.0 1.0 2.718281828459045 0.36787944117144233 2.718281828459045 0.36787944117144233 1.0 1.0 2.718281828459045 0.36787944117144233 2.718281828459045 0.36787944117144233 2.718281828459045 0.36787944117144233 2.718281828459045 0.36787944117144233 1.0 1.0 2.718281828459045 0.36787944117144233 2.718281828459045 0.36787944117144233 2.718281828459045 0.36787944117144233 1.0 1.0 2.718281828459045 0.36787944117144233 2.718281828459045 0.36787944117144233 2.718281828459045 0.36787944117144233 2.718281828459045 0.36787944117144233 2.718281828459045 0.36787944117144233 1.0 1.0 2.718281828459045 0.36787944117144233 1.0 1.0 2.718281828459045 0.36787944117144233 2.718281828459045 0.36787944117144233 1.0 1.0 1.0 1.0 2.718281828459045 0.36787944117144233 2.718281828459045 0.36787944117144233 2.718281828459045 0.36787944117144233 2.718281828459045 0.36787944117144233 2.718281828459045 0.36787944117144233 1.0 1.0 2.718281828459045 0.36787944117144233 2.718281828459045 0.36787944117144233 2.718281828459045 0.36787944117144233 2.718281828459045 0.36787944117144233 1.0 1.0 2.718281828459045 0.36787944117144233 1.0 1.0 2.718281828459045 0.36787944117144233 2.718281828459045 0.36787944117144233 2.718281828459045 0.36787944117144233 2.718281828459045 0.36787944117144233 1.0 1.0 2.718281828459045 0.36787944117144233 2.718281828459045 0.36787944117144233 2.718281828459045 0.36787944117144233 1.0 1.0 2.718281828459045 0.36787944117144233 2.718281828459045 0.36787944117144233 1.0 1.0 2.718281828459045 0.36787944117144233 2.718281828459045 0.36787944117144233 1.0 1.0 2.718281828459045 0.36787944117144233 2.718281828459045 0.36787944117144233 1.0 1.0 2.718281828459045 0.36787944117144233 2.718281828459045 0.36787944117144233 2.718281828459045 0.36787944117144233 2.718281828459045 0.36787944117144233 2.718281828459045 0.36787944117144233 1.0 1.0 2.718281828459045 0.36787944117144233 2.718281828459045 0.36787944117144233 2.718281828459045 0.36787944117144233 2.718281828459045 0.36787944117144233 1.0 1.0 2.718281828459045 0.36787944117144233 2.718281828459045 0.36787944117144233 2.718281828459045 0.36787944117144233 2.718281828459045 0.36787944117144233 2.718281828459045 0.36787944117144233 2.718281828459045 0.36787944117144233 1.0 1.0 1.0 1.0 2.718281828459045 0.36787944117144233 1.0 1.0 1.0 1.0 2.718281828459045 0.36787944117144233 2.718281828459045 0.36787944117144233 1.0 1.0 2.718281828459045 0.36787944117144233 2.718281828459045 0.36787944117144233 2.718281828459045 0.36787944117144233 2.718281828459045 0.36787944117144233 1.0 1.0 2.718281828459045 0.36787944117144233 2.718281828459045 0.36787944117144233 1.0 1.0 2.718281828459045 0.36787944117144233 2.718281828459045 0.36787944117144233 2.718281828459045 0.36787944117144233 1.0 1.0 2.718281828459045 0.36787944117144233 2.718281828459045 0.36787944117144233 1.0 1.0 2.718281828459045 0.36787944117144233 1.0 1.0 2.718281828459045 0.36787944117144233 1.0 1.0 2.718281828459045 0.36787944117144233 2.718281828459045 0.36787944117144233 2.718281828459045 0.36787944117144233 1.0 1.0 2.718281828459045 0.36787944117144233 1.0 1.0 2.718281828459045 0.36787944117144233 2.718281828459045 0.36787944117144233 2.718281828459045 0.36787944117144233 2.718281828459045 0.36787944117144233 1.0 1.0 2.718281828459045 0.36787944117144233 2.718281828459045 0.36787944117144233 1.0 1.0 2.718281828459045 0.36787944117144233 1.0 1.0 2.718281828459045 0.36787944117144233 2.718281828459045 0.36787944117144233 2.718281828459045 0.36787944117144233 2.718281828459045 0.36787944117144233 2.718281828459045 0.36787944117144233 1.0 1.0 2.718281828459045 0.36787944117144233 2.718281828459045 0.36787944117144233 2.718281828459045 0.36787944117144233 2.718281828459045 0.36787944117144233 1.0 1.0 2.718281828459045 0.36787944117144233 1.0 1.0 2.718281828459045 0.36787944117144233 2.718281828459045 0.36787944117144233 1.0 1.0 1.0 1.0 2.718281828459045 0.36787944117144233 2.718281828459045 0.36787944117144233 1.0 1.0 2.718281828459045 0.36787944117144233 1.0 1.0 2.718281828459045 0.36787944117144233 2.718281828459045 0.36787944117144233 2.718281828459045 0.36787944117144233 1.0 1.0 1.0 1.0 2.718281828459045 0.36787944117144233 1.0 1.0 2.718281828459045 0.36787944117144233 2.718281828459045 0.36787944117144233 2.718281828459045 0.36787944117144233 2.718281828459045 0.36787944117144233 2.718281828459045 0.36787944117144233 1.0 1.0 2.718281828459045 0.36787944117144233 2.718281828459045 0.36787944117144233 2.718281828459045 0.36787944117144233 1.0 1.0 2.718281828459045 0.36787944117144233 1.0 1.0 2.718281828459045 0.36787944117144233 2.718281828459045 0.36787944117144233 1.0 1.0 2.718281828459045 0.36787944117144233 2.718281828459045 0.36787944117144233 1.0 1.0 1.0 1.0 1.0 1.0 2.718281828459045 0.36787944117144233 1.0 1.0 1.0 1.0 1.0 1.0 2.718281828459045 0.36787944117144233 1.0 1.0 2.718281828459045 0.36787944117144233 1.0 1.0 2.718281828459045 0.36787944117144233 1.0 1.0 2.718281828459045 0.36787944117144233 2.718281828459045 0.36787944117144233 1.0 1.0 2.718281828459045 0.36787944117144233 2.718281828459045 0.36787944117144233 1.0 1.0 1.0 1.0 1.0 1.0 1.0 1.0 2.718281828459045 0.36787944117144233 1.0 1.0 2.718281828459045 0.36787944117144233 1.0 1.0 2.718281828459045 0.36787944117144233 2.718281828459045 0.36787944117144233 2.718281828459045 0.36787944117144233 1.0 1.0 1.0 1.0 2.718281828459045 0.36787944117144233 1.0 1.0 2.718281828459045 0.36787944117144233 2.718281828459045 0.36787944117144233 1.0 1.0 1.0 1.0 2.718281828459045 0.36787944117144233 1.0 1.0 1.0 1.0 2.718281828459045 0.36787944117144233 1.0 1.0 2.718281828459045 0.36787944117144233 1.0 1.0 1.0 1.0 1.0 1.0 1.0 1.0 2.718281828459045 0.36787944117144233 1.0 1.0 1.0 1.0 2.718281828459045 0.36787944117144233 1.0 1.0 2.718281828459045 0.36787944117144233 1.0 1.0 2.718281828459045 0.36787944117144233 1.0 1.0 1.0 1.0 1.0 1.0 1.0 1.0 1.0 1.0 1.0 1.0 2.718281828459045 0.36787944117144233 1.0 1.0 2.718281828459045 0.36787944117144233 2.718281828459045 0.36787944117144233 1.0 1.0 1.0 1.0 1.0 1.0 1.0 1.0 2.718281828459045 0.36787944117144233 1.0 1.0 1.0 1.0 1.0 1.0 1.0 1.0 1.0 1.0 1.0 1.0 1.0 1.0 1.0 1.0 1.0 1.0 1.0 1.0
2 1 79 0
2 -1 -79 0
-2 1 -79 0
-2 -1 79 0
3 1 127 0
3 -1 -127 0
-3 1 -127 0
-3 -1 127 0
4 1 212 0
4 -1 -212 0
-4 1 -212 0
-4 -1 212 0
6 5 163 0
6 -5 -163 0
-6 5 -163 0
-6 -5 163 0
7 5 170 0
7 -5 -170 0
-7 5 -170 0
-7 -5 170 0
8 5 205 0
8 -5 -205 0
-8 5 -205 0
-8 -5 205 0
10 9 45 0
10 -9 -45 0
-10 9 -45 0
-10 -9 45 0
11 9 116 0
11 -9 -116 0
-11 9 -116 0
-11 -9 116 0
12 9 173 0
12 -9 -173 0
-12 9 -173 0
-12 -9 173 0
14 13 168 0
14 -13 -168 0
-14 13 -168 0
-14 -13 168 0
15 13 239 0
15 -13 -239 0
-15 13 -239 0
-15 -13 239 0
16 13 248 0
16 -13 -248 0
-16 13 -248 0
-16 -13 248 0
17 13 250 0
17 -13 -250 0
-17 13 -250 0
-17 -13 250 0
18 13 279 0
18 -13 -279 0
-18 13 -279 0
-18 -13 279 0
20 19 84 0
20 -19 -84 0
-20 19 -84 0
-20 -19 84 0
21 19 206 0
21 -19 -206 0
-21 19 -206 0
-21 -19 206 0
22 19 214 0
22 -19 -214 0
-22 19 -214 0
-22 -19 214 0
23 19 257 0
23 -19 -257 0
-23 19 -257 0
-23 -19 257 0
24 19 269 0
24 -19 -269 0
-24 19 -269 0
-24 -19 269 0
25 19 281 0
25 -19 -281 0
-25 19 -281 0
-25 -19 281 0
27 26 177 0
27 -26 -177 0
-27 26 -177 0
-27 -26 177 0
28 26 205 0
28 -26 -205 0
-28 26 -205 0
-28 -26 205 0
29 26 249 0
29 -26 -249 0
-29 26 -249 0
-29 -26 249 0
30 26 270 0
30 -26 -270 0
-30 26 -270 0
-30 -26 270 0
32 31 209 0
32 -31 -209 0
-32 31 -209 0
-32 -31 209 0
33 31 275 0
33 -31 -275 0
-33 31 -275 0
-33 -31 275 0
35 34 118 0
35 -34 -118 0
-35 34 -118 0
-35 -34 118 0
36 34 282 0
36 -34 -282 0
-36 34 -282 0
-36 -34 282 0
38 37 108 0
38 -37 -108 0
-38 37 -108 0
-38 -37 108 0
39 37 173 0
39 -37 -173 0
-39 37 -173 0
-39 -37 173 0
40 37 227 0
40 -37 -227 0
-40 37 -227 0
-40 -37 227 0
41 37 280 0
41 -37 -280 0
-41 37 -280 0
-41 -37 280 0
43 42 122 0
43 -42 -122 0
-43 42 -122 0
-43 -42 122 0
44 42 242 0
44 -42 -242 0
-44 42 -242 0
-44 -42 242 0
46 45 147 0
46 -45 -147 0
-46 45 -147 0
-46 -45 147 0
47 45 212 0
47 -45 -212 0
-47 45 -212 0
-47 -45 212 0
48 45 247 0
48 -45 -247 0
-48 45 -247 0
-48 -45 247 0
49 45 249 0
49 -45 -249 0
-49 45 -249 0
-49 -45 249 0
51 50 155 0
51 -50 -155 0
-51 50 -155 0
-51 -50 155 0
52 50 196 0
52 -50 -196 0
-52 50 -196 0
-52 -50 196 0
53 50 259 0
53 -50 -259 0
-53 50 -259 0
-53 -50 259 0
55 54 94 0
55 -54 -94 0
-55 54 -94 0
-55 -54 94 0
56 54 174 0
56 -54 -174 0
-56 54 -174 0
-56 -54 174 0
57 54 196 0
57 -54 -196 0
-57 54 -196 0
-57 -54 196 0
58 54 225 0
58 -54 -225 0
-58 54 -225 0
-58 -54 225 0
59 54 260 0
59 -54 -260 0
-59 54 -260 0
-59 -54 260 0
61 60 139 0
61 -60 -139 0
-61 60 -139 0
-61 -60 139 0
63 62 127 0
63 -62 -127 0
-63 62 -127 0
-63 -62 127 0
64 62 227 0
64 -62 -227 0
-64 62 -227 0
-64 -62 227 0
67 66 72 0
67 -66 -72 0
-67 66 -72 0
-67 -66 72 0
68 66 174 0
68 -66 -174 0
-68 66 -174 0
-68 -66 174 0
69 66 214 0
69 -66 -214 0
-69 66 -214 0
-69 -66 214 0
70 66 236 0
70 -66 -236 0
-70 66 -236 0
-70 -66 236 0
71 66 274 0
71 -66 -274 0
-71 66 -274 0
-71 -66 274 0
73 72 147 0
73 -72 -147 0
-73 72 -147 0
-73 -72 147 0
74 72 157 0
74 -72 -157 0
-74 72 -157 0
-74 -72 157 0
75 72 174 0
75 -72 -174 0
-75 72 -174 0
-75 -72 174 0
76 72 225 0
76 -72 -225 0
-76 72 -225 0
-76 -72 225 0
78 77 245 0
78 -77 -245 0
-78 77 -245 0
-78 -77 245 0
80 79 122 0
80 -79 -122 0
-80 79 -122 0
-80 -79 122 0
81 79 174 0
81 -79 -174 0
-81 79 -174 0
-81 -79 174 0
82 79 216 0
82 -79 -216 0
-82 79 -216 0
-82 -79 216 0
83 79 255 0
83 -79 -255 0
-83 79 -255 0
-83 -79 255 0
85 84 249 0
85 -84 -249 0
-85 84 -249 0
-85 -84 249 0
86 84 279 0
86 -84 -279 0
-86 84 -279 0
-86 -84 279 0
87 84 283 0
87 -84 -283 0
-87 84 -283 0
-87 -84 283 0
89 88 141 0
89 -88 -141 0
-89 88 -141 0
-89 -88 141 0
90 88 279 0
90 -88 -279 0
-90 88 -279 0
-90 -88 279 0
92 91 198 0
92 -91 -198 0
-92 91 -198 0
-92 -91 198 0
93 91 253 0
93 -91 -253 0
-93 91 -253 0
-93 -91 253 0
95 94 170 0
95 -94 -170 0
-95 94 -170 0
-95 -94 170 0
96 94 227 0
96 -94 -227 0
-96 94 -227 0
-96 -94 227 0
98 97 130 0
98 -97 -130 0
-98 97 -130 0
-98 -97 130 0
99 97 147 0
99 -97 -147 0
-99 97 -147 0
-99 -97 147 0
100 97 177 0
100 -97 -177 0
-100 97 -177 0
-100 -97 177 0
101 97 252 0
101 -97 -252 0
-101 97 -252 0
-101 -97 252 0
102 97 271 0
102 -97 -271 0
-102 97 -271 0
-102 -97 271 0
104 103 234 0
104 -103 -234 0
-104 103 -234 0
-104 -103 234 0
105 103 264 0
105 -103 -264 0
-105 103 -264 0
-105 -103 264 0
106 103 278 0
106 -103 -278 0
-106 103 -278 0
-106 -103 278 0
107 103 283 0
107 -103 -283 0
-107 103 -283 0
-107 -103 283 0
109 108 139 0
109 -108 -139 0
-109 108 -139 0
-109 -108 139 0
110 108 223 0
110 -108 -223 0
-110 108 -223 0
-110 -108 223 0
111 108 269 0
111 -108 -269 0
-111 108 -269 0
-111 -108 269 0
112 108 278 0
112 -108 -278 0
-112 108 -278 0
-112 -108 278 0
113 108 280 0
113 -108 -280 0
-113 108 -280 0
-113 -108 280 0
114 108 281 0
114 -108 -281 0
-114 108 -281 0
-114 -108 281 0
117 116 201 0
117 -116 -201 0
-117 116 -201 0
-117 -116 201 0
120 119 277 0
120 -119 -277 0
-120 119 -277 0
-120 -119 277 0
121 119 282 0
121 -119 -282 0
-121 119 -282 0
-121 -119 282 0
123 122 183 0
123 -122 -183 0
-123 122 -183 0
-123 -122 183 0
124 122 225 0
124 -122 -225 0
-124 122 -225 0
-124 -122 225 0
125 122 229 0
125 -122 -229 0
-125 122 -229 0
-125 -122 229 0
126 122 259 0
126 -122 -259 0
-126 122 -259 0
-126 -122 259 0
128 127 137 0
128 -127 -137 0
-128 127 -137 0
-128 -127 137 0
129 127 255 0
129 -127 -255 0
-129 127 -255 0
-129 -127 255 0
131 130 209 0
131 -130 -209 0
-131 130 -209 0
-131 -130 209 0
132 130 212 0
132 -130 -212 0
-132 130 -212 0
-132 -130 212 0
133 130 222 0
133 -130 -222 0
-133 130 -222 0
-133 -130 222 0
135 134 212 0
135 -134 -212 0
-135 134 -212 0
-135 -134 212 0
136 134 279 0
136 -134 -279 0
-136 134 -279 0
-136 -134 279 0
138 137 214 0
138 -137 -214 0
-138 137 -214 0
-138 -137 214 0
140 139 163 0
140 -139 -163 0
-140 139 -163 0
-140 -139 163 0
142 141 198 0
142 -141 -198 0
-142 141 -198 0
-142 -141 198 0
143 141 233 0
143 -141 -233 0
-143 141 -233 0
-143 -141 233 0
144 141 280 0
144 -141 -280 0
-144 141 -280 0
-144 -141 280 0
146 145 239 0
146 -145 -239 0
-146 145 -239 0
-146 -145 239 0
148 147 186 0
148 -147 -186 0
-148 147 -186 0
-148 -147 186 0
149 147 208 0
149 -147 -208 0
-149 147 -208 0
-149 -147 208 0
150 147 223 0
150 -147 -223 0
-150 147 -223 0
-150 -147 223 0
151 147 259 0
151 -147 -259 0
-151 147 -259 0
-151 -147 259 0
153 152 183 0
153 -152 -183 0
-153 152 -183 0
-153 -152 183 0
154 152 276 0
154 -152 -276 0
-154 152 -276 0
-154 -152 276 0
156 155 276 0
156 -155 -276 0
-156 155 -276 0
-156 -155 276 0
158 157 173 0
158 -157 -173 0
-158 157 -173 0
-158 -157 173 0
159 157 183 0
159 -157 -183 0
-159 157 -183 0
-159 -157 183 0
160 157 196 0
160 -157 -196 0
-160 157 -196 0
-160 -157 196 0
161 157 240 0
161 -157 -240 0
-161 157 -240 0
-161 -157 240 0
162 157 280 0
162 -157 -280 0
-162 157 -280 0
-162 -157 280 0
164 163 219 0
164 -163 -219 0
-164 163 -219 0
-164 -163 219 0
165 163 250 0
165 -163 -250 0
-165 163 -250 0
-165 -163 250 0
166 163 261 0
166 -163 -261 0
-166 163 -261 0
-166 -163 261 0
167 163 281 0
167 -163 -281 0
-167 163 -281 0
-167 -163 281 0
169 168 248 0
169 -168 -248 0
-169 168 -248 0
-169 -168 248 0
171 170 205 0
171 -170 -205 0
-171 170 -205 0
-171 -170 205 0
172 170 236 0
172 -170 -236 0
-172 170 -236 0
-172 -170 236 0
175 174 225 0
175 -174 -225 0
-175 174 -225 0
-175 -174 225 0
176 174 227 0
176 -174 -227 0
-176 174 -227 0
-176 -174 227 0
178 177 214 0
178 -177 -214 0
-178 177 -214 0
-178 -177 214 0
180 179 198 0
180 -179 -198 0
-180 179 -198 0
-180 -179 198 0
181 179 270 0
181 -179 -270 0
-181 179 -270 0
-181 -179 270 0
182 179 278 0
182 -179 -278 0
-182 179 -278 0
-182 -179 278 0
185 184 278 0
185 -184 -278 0
-185 184 -278 0
-185 -184 278 0
187 186 192 0
187 -186 -192 0
-187 186 -192 0
-187 -186 192 0
188 186 205 0
188 -186 -205 0
-188 186 -205 0
-188 -186 205 0
189 186 209 0
189 -186 -209 0
-189 186 -209 0
-189 -186 209 0
190 186 242 0
190 -186 -242 0
-190 186 -242 0
-190 -186 242 0
191 186 280 0
191 -186 -280 0
-191 186 -280 0
-191 -186 280 0
193 192 227 0
193 -192 -227 0
-193 192 -227 0
-193 -192 227 0
194 192 233 0
194 -192 -233 0
-194 192 -233 0
-194 -192 233 0
195 192 269 0
195 -192 -269 0
-195 192 -269 0
-195 -192 269 0
197 196 280 0
197 -196 -280 0
-197 196 -280 0
-197 -196 280 0
199 198 247 0
199 -198 -247 0
-199 198 -247 0
-199 -198 247 0
200 198 271 0
200 -198 -271 0
-200 198 -271 0
-200 -198 271 0
202 201 222 0
202 -201 -222 0
-202 201 -222 0
-202 -201 222 0
203 201 266 0
203 -201 -266 0
-203 201 -266 0
-203 -201 266 0
207 206 261 0
207 -206 -261 0
-207 206 -261 0
-207 -206 261 0
211 210 214 0
211 -210 -214 0
-211 210 -214 0
-211 -210 214 0
213 212 248 0
213 -212 -248 0
-213 212 -248 0
-213 -212 248 0
215 214 225 0
215 -214 -225 0
-215 214 -225 0
-215 -214 225 0
217 216 250 0
217 -216 -250 0
-217 216 -250 0
-217 -216 250 0
218 216 271 0
218 -216 -271 0
-218 216 -271 0
-218 -216 271 0
220 219 233 0
220 -219 -233 0
-220 219 -233 0
-220 -219 233 0
221 219 260 0
221 -219 -260 0
-221 219 -260 0
-221 -219 260 0
226 225 243 0
226 -225 -243 0
-226 225 -243 0
-226 -225 243 0
228 227 257 0
228 -227 -257 0
-228 227 -257 0
-228 -227 257 0
230 229 248 0
230 -229 -248 0
-230 229 -248 0
-230 -229 248 0
231 229 263 0
231 -229 -263 0
-231 229 -263 0
-231 -229 263 0
232 229 276 0
232 -229 -276 0
-232 229 -276 0
-232 -229 276 0
235 234 262 0
235 -234 -262 0
-235 234 -262 0
-235 -234 262 0
237 236 264 0
237 -236 -264 0
-237 236 -264 0
-237 -236 264 0
238 236 279 0
238 -236 -279 0
-238 236 -279 0
-238 -236 279 0
241 240 270 0
241 -240 -270 0
-241 240 -270 0
-241 -240 270 0
244 243 274 0
244 -243 -274 0
-244 243 -274 0
-244 -243 274 0
246 245 269 0
246 -245 -269 0
-246 245 -269 0
-246 -245 269 0
251 250 275 0
251 -250 -275 0
-251 250 -275 0
-251 -250 275 0
254 253 279 0
254 -253 -279 0
-254 253 -279 0
-254 -253 279 0
256 255 283 0
256 -255 -283 0
-256 255 -283 0
-256 -255 283 0
258 257 282 0
258 -257 -282 0
-258 257 -282 0
-258 -257 282 0
265 264 281 0
265 -264 -281 0
-265 264 -281 0
-265 -264 281 0
267 266 272 0
267 -266 -272 0
-267 266 -272 0
-267 -266 272 0
268 266 277 0
268 -266 -277 0
-268 266 -277 0
-268 -266 277 0
273 272 282 0
273 -272 -282 0
-273 272 -282 0
-273 -272 282 0
